% seed = 9370750

mint = 64;
% maxt = 235;

nActs = 42;
dur = [0,7,3,9,5,1,6,2,3,4,6,8,3,8,7,6,8,10,3,10,8,5,2,10,5,3,7,10,1,1,4,6,5,4,9,3,10,7,10,8,8,0];

nSkills = 4;
sreq = [| 0,0,0,0,
	| 0,4,0,4,
	| 6,4,0,0,
	| 0,3,0,4,
	| 6,0,4,0,
	| 0,0,1,4,
	| 7,2,0,0,
	| 5,0,5,0,
	| 2,0,6,0,
	| 0,4,7,0,
	| 3,3,0,0,
	| 6,0,0,4,
	| 0,1,4,0,
	| 0,4,0,3,
	| 0,4,7,0,
	| 0,0,3,7,
	| 0,3,0,5,
	| 0,0,3,6,
	| 7,0,4,0,
	| 0,3,5,0,
	| 4,2,0,0,
	| 0,2,0,6,
	| 4,0,0,2,
	| 4,0,0,3,
	| 3,0,5,0,
	| 2,2,0,0,
	| 0,0,7,3,
	| 0,0,4,3,
	| 0,6,4,0,
	| 0,0,2,3,
	| 0,3,4,0,
	| 3,0,0,3,
	| 0,7,0,2,
	| 0,2,4,0,
	| 4,6,0,0,
	| 7,2,0,0,
	| 0,2,0,2,
	| 0,4,7,0,
	| 3,0,0,3,
	| 0,3,0,7,
	| 0,5,0,3,
	| 0,0,0,0, |];

nResources = 25;
mastery = [| true,false,true,true,
	| true,true,false,false,
	| true,true,true,false,
	| false,false,true,true,
	| true,true,false,true,
	| true,false,false,true,
	| true,true,false,false,
	| false,false,false,true,
	| true,true,false,true,
	| false,true,true,true,
	| false,false,true,true,
	| true,false,true,true,
	| false,true,false,false,
	| false,true,false,false,
	| true,true,false,true,
	| false,false,false,true,
	| true,false,false,true,
	| true,false,true,false,
	| true,false,false,false,
	| true,false,false,false,
	| true,true,false,true,
	| true,false,false,true,
	| false,false,false,true,
	| true,false,true,true,
	| true,true,false,true, |];

nPrecs = 61;
pred = [1,1,1,2,2,2,3,4,4,4,5,6,6,6,7,7,7,8,8,8,9,10,11,12,12,13,14,15,16,16,16,17,18,18,19,20,20,20,21,22,23,24,25,26,27,28,29,30,31,32,32,33,34,35,36,36,37,38,39,40,41];
succ = [2,3,4,35,12,6,7,13,11,5,8,10,30,18,33,14,22,9,17,32,24,15,16,34,39,33,38,17,29,21,23,26,19,20,29,25,27,38,28,36,24,31,40,29,40,35,39,36,34,34,35,40,36,41,41,37,39,41,42,42,42];

nUnrels = 551;
unpred = [2,2,2,2,2,2,2,2,2,2,2,2,2,2,2,2,2,2,3,3,3,3,3,3,3,3,3,3,3,3,3,3,3,3,3,3,3,3,3,3,3,3,3,3,3,3,4,4,4,4,4,4,4,4,4,4,4,4,4,4,5,5,5,5,5,5,5,5,5,5,5,5,5,5,5,5,5,5,5,5,5,5,6,6,6,6,6,6,6,6,6,6,6,6,6,6,6,6,6,6,7,7,7,7,7,7,7,7,7,7,7,7,7,7,7,7,7,7,7,7,7,7,7,7,7,8,8,8,8,8,8,8,8,8,8,8,8,8,8,8,8,8,8,8,8,9,9,9,9,9,9,9,9,9,9,9,9,9,9,9,9,9,9,9,9,9,9,9,9,9,10,10,10,10,10,10,10,10,10,10,10,10,10,10,10,10,10,10,10,10,10,10,10,10,10,10,11,11,11,11,11,11,11,11,11,11,11,11,11,11,11,11,11,12,12,12,12,12,12,12,12,12,12,12,12,12,12,12,12,12,12,12,12,12,12,12,12,13,13,13,13,13,13,13,13,13,13,13,13,13,13,13,13,13,13,13,13,13,13,13,13,13,13,14,14,14,14,14,14,14,14,14,14,14,14,14,14,14,14,14,14,14,14,14,14,14,14,14,15,15,15,15,15,15,15,15,15,15,15,15,15,15,15,15,15,15,15,15,15,15,16,16,16,16,16,16,16,16,16,16,16,16,16,17,17,17,17,17,17,17,17,17,17,17,17,17,17,17,17,17,17,17,17,17,18,18,18,18,18,18,18,18,18,18,18,18,18,18,19,19,19,19,19,19,19,19,19,19,19,19,19,19,19,19,19,19,19,19,20,20,20,20,20,20,20,20,20,20,20,20,20,20,20,20,21,21,21,21,21,21,21,21,21,21,21,21,21,21,21,21,21,22,22,22,22,22,22,22,22,22,22,22,22,22,22,22,23,23,23,23,23,23,23,23,23,23,23,24,24,24,24,24,24,24,24,24,24,24,25,25,25,25,25,25,25,25,25,25,25,25,25,25,25,26,26,26,26,26,26,26,26,26,26,26,26,26,27,27,27,27,27,27,27,27,27,27,27,27,27,28,28,28,28,28,28,28,28,28,28,28,29,29,29,29,29,29,29,29,29,29,29,30,30,30,30,30,30,30,31,31,31,31,31,32,32,32,33,33,33,33,33,33,33,34,34,34,35,35,35,35,35,36,36,37,37,37,38,38,39,39,40];
unsucc = [3,4,5,7,8,9,11,13,14,16,21,22,23,24,28,31,32,33,4,5,6,8,9,10,11,12,13,15,16,17,18,19,20,21,23,24,25,26,27,28,29,30,31,32,34,35,6,7,10,12,14,15,18,19,20,22,25,27,30,38,6,7,10,11,12,13,14,15,16,18,19,20,21,22,23,25,27,28,30,33,38,40,7,8,9,11,12,13,14,16,21,22,23,24,28,31,32,33,34,35,8,9,10,11,12,13,15,16,17,18,19,20,21,23,24,25,26,27,28,29,30,31,32,34,35,10,11,12,13,14,15,16,18,19,20,21,22,23,25,27,28,30,33,38,40,10,11,12,13,14,15,16,17,18,19,20,21,22,23,25,26,27,28,29,30,32,33,35,38,40,11,12,13,14,16,18,19,20,21,22,23,24,25,27,28,30,31,32,33,34,35,36,37,38,40,41,12,13,14,15,17,18,19,20,22,25,26,27,30,32,33,38,40,13,14,15,16,17,18,19,20,21,22,23,24,25,26,27,28,29,30,31,32,33,35,38,40,14,15,16,17,18,19,20,21,22,23,24,25,26,27,28,29,30,31,32,34,35,36,37,38,39,41,15,16,17,18,19,20,21,22,23,24,25,26,27,28,29,30,31,32,33,34,35,36,37,39,40,16,18,19,20,21,22,23,24,25,27,28,30,31,32,33,34,35,36,37,38,40,41,17,18,19,20,22,25,26,27,30,32,33,38,40,18,19,20,21,22,23,24,25,27,28,30,31,32,33,34,35,36,37,38,40,41,21,22,23,24,26,28,30,31,32,33,34,35,36,37,20,21,22,23,24,25,26,27,28,30,31,32,33,34,35,36,37,38,40,41,21,22,23,24,26,28,29,30,31,32,33,34,35,36,37,39,22,23,24,25,26,27,29,30,31,32,33,34,36,37,38,39,40,23,24,25,26,27,28,29,30,31,32,33,34,35,38,40,25,26,27,28,29,30,32,33,35,38,40,25,26,27,28,29,30,32,33,35,38,40,26,27,28,29,30,31,32,33,34,35,36,37,38,39,41,27,28,30,31,32,33,34,35,36,37,38,40,41,28,29,30,31,32,33,34,35,36,37,38,39,41,29,30,31,32,33,34,36,37,38,39,40,30,31,32,33,34,35,36,37,38,40,41,31,32,33,34,35,38,40,32,33,35,38,40,33,38,40,34,35,36,37,38,39,41,35,38,40,36,37,38,39,40,38,40,38,40,41,39,40,40,41,41];

USEFUL_RES = [{},
	{1,2,3,4,5,6,7,8,9,10,11,12,13,14,15,16,17,21,22,23,24,25},
	{1,2,3,5,6,7,9,10,12,13,14,15,17,18,19,20,21,22,24,25},
	{1,2,3,4,5,6,7,8,9,10,11,12,13,14,15,16,17,21,22,23,24,25},
	{1,2,3,4,5,6,7,9,10,11,12,15,17,18,19,20,21,22,24,25},
	{1,3,4,5,6,8,9,10,11,12,15,16,17,18,21,22,23,24,25},
	{1,2,3,5,6,7,9,10,12,13,14,15,17,18,19,20,21,22,24,25},
	{1,2,3,4,5,6,7,9,10,11,12,15,17,18,19,20,21,22,24,25},
	{1,2,3,4,5,6,7,9,10,11,12,15,17,18,19,20,21,22,24,25},
	{1,2,3,4,5,7,9,10,11,12,13,14,15,18,21,24,25},
	{1,2,3,5,6,7,9,10,12,13,14,15,17,18,19,20,21,22,24,25},
	{1,2,3,4,5,6,7,8,9,10,11,12,15,16,17,18,19,20,21,22,23,24,25},
	{1,2,3,4,5,7,9,10,11,12,13,14,15,18,21,24,25},
	{1,2,3,4,5,6,7,8,9,10,11,12,13,14,15,16,17,21,22,23,24,25},
	{1,2,3,4,5,7,9,10,11,12,13,14,15,18,21,24,25},
	{1,3,4,5,6,8,9,10,11,12,15,16,17,18,21,22,23,24,25},
	{1,2,3,4,5,6,7,8,9,10,11,12,13,14,15,16,17,21,22,23,24,25},
	{1,3,4,5,6,8,9,10,11,12,15,16,17,18,21,22,23,24,25},
	{1,2,3,4,5,6,7,9,10,11,12,15,17,18,19,20,21,22,24,25},
	{1,2,3,4,5,7,9,10,11,12,13,14,15,18,21,24,25},
	{1,2,3,5,6,7,9,10,12,13,14,15,17,18,19,20,21,22,24,25},
	{1,2,3,4,5,6,7,8,9,10,11,12,13,14,15,16,17,21,22,23,24,25},
	{1,2,3,4,5,6,7,8,9,10,11,12,15,16,17,18,19,20,21,22,23,24,25},
	{1,2,3,4,5,6,7,8,9,10,11,12,15,16,17,18,19,20,21,22,23,24,25},
	{1,2,3,4,5,6,7,9,10,11,12,15,17,18,19,20,21,22,24,25},
	{1,2,3,5,6,7,9,10,12,13,14,15,17,18,19,20,21,22,24,25},
	{1,3,4,5,6,8,9,10,11,12,15,16,17,18,21,22,23,24,25},
	{1,3,4,5,6,8,9,10,11,12,15,16,17,18,21,22,23,24,25},
	{1,2,3,4,5,7,9,10,11,12,13,14,15,18,21,24,25},
	{1,3,4,5,6,8,9,10,11,12,15,16,17,18,21,22,23,24,25},
	{1,2,3,4,5,7,9,10,11,12,13,14,15,18,21,24,25},
	{1,2,3,4,5,6,7,8,9,10,11,12,15,16,17,18,19,20,21,22,23,24,25},
	{1,2,3,4,5,6,7,8,9,10,11,12,13,14,15,16,17,21,22,23,24,25},
	{1,2,3,4,5,7,9,10,11,12,13,14,15,18,21,24,25},
	{1,2,3,5,6,7,9,10,12,13,14,15,17,18,19,20,21,22,24,25},
	{1,2,3,5,6,7,9,10,12,13,14,15,17,18,19,20,21,22,24,25},
	{1,2,3,4,5,6,7,8,9,10,11,12,13,14,15,16,17,21,22,23,24,25},
	{1,2,3,4,5,7,9,10,11,12,13,14,15,18,21,24,25},
	{1,2,3,4,5,6,7,8,9,10,11,12,15,16,17,18,19,20,21,22,23,24,25},
	{1,2,3,4,5,6,7,8,9,10,11,12,13,14,15,16,17,21,22,23,24,25},
	{1,2,3,4,5,6,7,8,9,10,11,12,13,14,15,16,17,21,22,23,24,25},
	{}];

POTENTIAL_ACT = [{2,3,4,5,6,7,8,9,10,11,12,13,14,15,16,17,18,19,20,21,22,23,24,25,26,27,28,29,30,31,32,33,34,35,36,37,38,39,40,41},
	{2,3,4,5,7,8,9,10,11,12,13,14,15,17,19,20,21,22,23,24,25,26,29,31,32,33,34,35,36,37,38,39,40,41},
	{2,3,4,5,6,7,8,9,10,11,12,13,14,15,16,17,18,19,20,21,22,23,24,25,26,27,28,29,30,31,32,33,34,35,36,37,38,39,40,41},
	{2,4,5,6,8,9,10,12,13,14,15,16,17,18,19,20,22,23,24,25,27,28,29,30,31,32,33,34,37,38,39,40,41},
	{2,3,4,5,6,7,8,9,10,11,12,13,14,15,16,17,18,19,20,21,22,23,24,25,26,27,28,29,30,31,32,33,34,35,36,37,38,39,40,41},
	{2,3,4,5,6,7,8,9,11,12,14,16,17,18,19,21,22,23,24,25,26,27,28,30,32,33,35,36,37,39,40,41},
	{2,3,4,5,7,8,9,10,11,12,13,14,15,17,19,20,21,22,23,24,25,26,29,31,32,33,34,35,36,37,38,39,40,41},
	{2,4,6,12,14,16,17,18,22,23,24,27,28,30,32,33,37,39,40,41},
	{2,3,4,5,6,7,8,9,10,11,12,13,14,15,16,17,18,19,20,21,22,23,24,25,26,27,28,29,30,31,32,33,34,35,36,37,38,39,40,41},
	{2,3,4,5,6,7,8,9,10,11,12,13,14,15,16,17,18,19,20,21,22,23,24,25,26,27,28,29,30,31,32,33,34,35,36,37,38,39,40,41},
	{2,4,5,6,8,9,10,12,13,14,15,16,17,18,19,20,22,23,24,25,27,28,29,30,31,32,33,34,37,38,39,40,41},
	{2,3,4,5,6,7,8,9,10,11,12,13,14,15,16,17,18,19,20,21,22,23,24,25,26,27,28,29,30,31,32,33,34,35,36,37,38,39,40,41},
	{2,3,4,7,10,11,13,14,15,17,20,21,22,26,29,31,33,34,35,36,37,38,40,41},
	{2,3,4,7,10,11,13,14,15,17,20,21,22,26,29,31,33,34,35,36,37,38,40,41},
	{2,3,4,5,6,7,8,9,10,11,12,13,14,15,16,17,18,19,20,21,22,23,24,25,26,27,28,29,30,31,32,33,34,35,36,37,38,39,40,41},
	{2,4,6,12,14,16,17,18,22,23,24,27,28,30,32,33,37,39,40,41},
	{2,3,4,5,6,7,8,9,11,12,14,16,17,18,19,21,22,23,24,25,26,27,28,30,32,33,35,36,37,39,40,41},
	{3,5,6,7,8,9,10,11,12,13,15,16,18,19,20,21,23,24,25,26,27,28,29,30,31,32,34,35,36,38,39},
	{3,5,7,8,9,11,12,19,21,23,24,25,26,32,35,36,39},
	{3,5,7,8,9,11,12,19,21,23,24,25,26,32,35,36,39},
	{2,3,4,5,6,7,8,9,10,11,12,13,14,15,16,17,18,19,20,21,22,23,24,25,26,27,28,29,30,31,32,33,34,35,36,37,38,39,40,41},
	{2,3,4,5,6,7,8,9,11,12,14,16,17,18,19,21,22,23,24,25,26,27,28,30,32,33,35,36,37,39,40,41},
	{2,4,6,12,14,16,17,18,22,23,24,27,28,30,32,33,37,39,40,41},
	{2,3,4,5,6,7,8,9,10,11,12,13,14,15,16,17,18,19,20,21,22,23,24,25,26,27,28,29,30,31,32,33,34,35,36,37,38,39,40,41},
	{2,3,4,5,6,7,8,9,10,11,12,13,14,15,16,17,18,19,20,21,22,23,24,25,26,27,28,29,30,31,32,33,34,35,36,37,38,39,40,41}];
